(set-logic QF_S)
(declare-fun var0 () String)
(declare-fun var1 () Int)
(declare-fun var2 () Int)
(declare-fun var3 () String)
(declare-fun var4 () Int)
(declare-fun var5 () Int)
(declare-fun var6 () String)
(declare-fun var7 () String)
(assert (> (str.len (str.substr var0 var1 var2)) (str.len var3)))
(assert (> (str.to.int (str.substr "p" var4 var5)) (str.to.int (str.substr var6 var1 var1))))
(assert (str.prefixof (str.substr var7 var4 var5) (str.substr var7 126 var2)))
(assert (> (str.len var3) (str.indexof (str.at var6 158) (str.replace var3 var0 var6) (str.len var7))))
(check-sat)